files/upTests/__reps/RelationIntMatrix2/set_of_first/0001.eprime
language ESSENCE' 1.0

find rs_SetExplicit_RelationIntMatrix2:
        matrix indexed by [int(1..2), int(0..3), int(0..4)] of bool
such that
    flatten(rs_SetExplicit_RelationIntMatrix2[1, .., ..])
    <lex
    flatten(rs_SetExplicit_RelationIntMatrix2[2, .., ..]),
    forAll v__0 : int(1..2)
        . rs_SetExplicit_RelationIntMatrix2[v__0, 1, 2]
          /\
          (sum v__1 : int(0..4) . rs_SetExplicit_RelationIntMatrix2[v__0, 2, v__1] * 1)
          =
          3
